NAME 
ROWS
 N  OBJ
 G  R0      
 G  R1      
 G  R2      
 G  R3      
 G  R4      
 G  R5      
 G  R6      
 G  R7      
 G  R8      
 G  R9      
 G  R10     
 G  R11     
 G  R12     
 G  R13     
 G  R14     
 G  R15     
 G  R16     
 G  R17     
 G  R18     
 G  R19     
 G  R20     
 G  R21     
 G  R22     
 G  R23     
 G  R24     
 G  R25     
 G  R26     
 G  R27     
 G  R28     
 G  R29     
 G  R30     
 G  R31     
 G  R32     
 G  R33     
 G  R34     
 G  R35     
 G  R36     
 G  R37     
 G  R38     
 G  R39     
 G  R40     
 G  R41     
 G  R42     
 G  R43     
 G  R44     
 G  R45     
 G  R46     
 G  R47     
COLUMNS
    x0        OBJ       1
    x0        R0        1
    x0        R4        1
    x0        R5        1
    x0        R7        1
    x0        R8        1
    x0        R9        1
    x0        R13       1
    x0        R14       1
    x0        R15       1
    x0        R18       1
    x0        R25       1
    x0        R26       1
    x0        R27       1
    x0        R30       1
    x0        R36       1
    x1        OBJ       1
    x1        R1        1
    x1        R3        1
    x1        R5        1
    x1        R6        1
    x1        R8        1
    x1        R10       1
    x1        R12       1
    x1        R14       1
    x1        R16       1
    x1        R19       1
    x1        R24       1
    x1        R26       1
    x1        R28       1
    x1        R31       1
    x1        R37       1
    x2        OBJ       1
    x2        R2        1
    x2        R3        1
    x2        R4        1
    x2        R6        1
    x2        R7        1
    x2        R11       1
    x2        R12       1
    x2        R13       1
    x2        R17       1
    x2        R20       1
    x2        R24       1
    x2        R25       1
    x2        R29       1
    x2        R32       1
    x2        R38       1
    x3        OBJ       1
    x3        R1        1
    x3        R2        1
    x3        R3        1
    x3        R6        1
    x3        R10       1
    x3        R11       1
    x3        R12       1
    x3        R16       1
    x3        R17       1
    x3        R21       1
    x3        R24       1
    x3        R28       1
    x3        R29       1
    x3        R33       1
    x3        R39       1
    x4        OBJ       1
    x4        R0        1
    x4        R2        1
    x4        R4        1
    x4        R7        1
    x4        R9        1
    x4        R11       1
    x4        R13       1
    x4        R15       1
    x4        R17       1
    x4        R22       1
    x4        R25       1
    x4        R27       1
    x4        R29       1
    x4        R34       1
    x4        R40       1
    x5        OBJ       1
    x5        R0        1
    x5        R1        1
    x5        R5        1
    x5        R8        1
    x5        R9        1
    x5        R10       1
    x5        R14       1
    x5        R15       1
    x5        R16       1
    x5        R23       1
    x5        R26       1
    x5        R27       1
    x5        R28       1
    x5        R35       1
    x5        R41       1
    x6        OBJ       1
    x6        R1        1
    x6        R2        1
    x6        R3        1
    x6        R6        1
    x6        R10       1
    x6        R11       1
    x6        R12       1
    x6        R19       1
    x6        R20       1
    x6        R21       1
    x6        R24       1
    x6        R31       1
    x6        R32       1
    x6        R33       1
    x6        R42       1
    x7        OBJ       1
    x7        R0        1
    x7        R2        1
    x7        R4        1
    x7        R7        1
    x7        R9        1
    x7        R11       1
    x7        R13       1
    x7        R18       1
    x7        R20       1
    x7        R22       1
    x7        R25       1
    x7        R30       1
    x7        R32       1
    x7        R34       1
    x7        R43       1
    x8        OBJ       1
    x8        R0        1
    x8        R1        1
    x8        R5        1
    x8        R8        1
    x8        R9        1
    x8        R10       1
    x8        R14       1
    x8        R18       1
    x8        R19       1
    x8        R23       1
    x8        R26       1
    x8        R30       1
    x8        R31       1
    x8        R35       1
    x8        R44       1
    x9        OBJ       1
    x9        R0        1
    x9        R4        1
    x9        R5        1
    x9        R7        1
    x9        R8        1
    x9        R9        1
    x9        R15       1
    x9        R18       1
    x9        R22       1
    x9        R23       1
    x9        R27       1
    x9        R30       1
    x9        R34       1
    x9        R35       1
    x9        R45       1
    x10       OBJ       1
    x10       R1        1
    x10       R3        1
    x10       R5        1
    x10       R6        1
    x10       R8        1
    x10       R10       1
    x10       R16       1
    x10       R19       1
    x10       R21       1
    x10       R23       1
    x10       R28       1
    x10       R31       1
    x10       R33       1
    x10       R35       1
    x10       R46       1
    x11       OBJ       1
    x11       R2        1
    x11       R3        1
    x11       R4        1
    x11       R6        1
    x11       R7        1
    x11       R11       1
    x11       R17       1
    x11       R20       1
    x11       R21       1
    x11       R22       1
    x11       R29       1
    x11       R32       1
    x11       R33       1
    x11       R34       1
    x11       R47       1
    x12       OBJ       1
    x12       R1        1
    x12       R2        1
    x12       R3        1
    x12       R6        1
    x12       R12       1
    x12       R16       1
    x12       R17       1
    x12       R19       1
    x12       R20       1
    x12       R21       1
    x12       R24       1
    x12       R37       1
    x12       R38       1
    x12       R39       1
    x12       R42       1
    x13       OBJ       1
    x13       R0        1
    x13       R2        1
    x13       R4        1
    x13       R7        1
    x13       R13       1
    x13       R15       1
    x13       R17       1
    x13       R18       1
    x13       R20       1
    x13       R22       1
    x13       R25       1
    x13       R36       1
    x13       R38       1
    x13       R40       1
    x13       R43       1
    x14       OBJ       1
    x14       R0        1
    x14       R1        1
    x14       R5        1
    x14       R8        1
    x14       R14       1
    x14       R15       1
    x14       R16       1
    x14       R18       1
    x14       R19       1
    x14       R23       1
    x14       R26       1
    x14       R36       1
    x14       R37       1
    x14       R41       1
    x14       R44       1
    x15       OBJ       1
    x15       R0        1
    x15       R4        1
    x15       R5        1
    x15       R9        1
    x15       R13       1
    x15       R14       1
    x15       R15       1
    x15       R18       1
    x15       R22       1
    x15       R23       1
    x15       R27       1
    x15       R36       1
    x15       R40       1
    x15       R41       1
    x15       R45       1
    x16       OBJ       1
    x16       R1        1
    x16       R3        1
    x16       R5        1
    x16       R10       1
    x16       R12       1
    x16       R14       1
    x16       R16       1
    x16       R19       1
    x16       R21       1
    x16       R23       1
    x16       R28       1
    x16       R37       1
    x16       R39       1
    x16       R41       1
    x16       R46       1
    x17       OBJ       1
    x17       R2        1
    x17       R3        1
    x17       R4        1
    x17       R11       1
    x17       R12       1
    x17       R13       1
    x17       R17       1
    x17       R20       1
    x17       R21       1
    x17       R22       1
    x17       R29       1
    x17       R38       1
    x17       R39       1
    x17       R40       1
    x17       R47       1
    x18       OBJ       1
    x18       R0        1
    x18       R7        1
    x18       R8        1
    x18       R9        1
    x18       R13       1
    x18       R14       1
    x18       R15       1
    x18       R18       1
    x18       R22       1
    x18       R23       1
    x18       R30       1
    x18       R36       1
    x18       R43       1
    x18       R44       1
    x18       R45       1
    x19       OBJ       1
    x19       R1        1
    x19       R6        1
    x19       R8        1
    x19       R10       1
    x19       R12       1
    x19       R14       1
    x19       R16       1
    x19       R19       1
    x19       R21       1
    x19       R23       1
    x19       R31       1
    x19       R37       1
    x19       R42       1
    x19       R44       1
    x19       R46       1
    x20       OBJ       1
    x20       R2        1
    x20       R6        1
    x20       R7        1
    x20       R11       1
    x20       R12       1
    x20       R13       1
    x20       R17       1
    x20       R20       1
    x20       R21       1
    x20       R22       1
    x20       R32       1
    x20       R38       1
    x20       R42       1
    x20       R43       1
    x20       R47       1
    x21       OBJ       1
    x21       R3        1
    x21       R6        1
    x21       R10       1
    x21       R11       1
    x21       R12       1
    x21       R16       1
    x21       R17       1
    x21       R19       1
    x21       R20       1
    x21       R21       1
    x21       R33       1
    x21       R39       1
    x21       R42       1
    x21       R46       1
    x21       R47       1
    x22       OBJ       1
    x22       R4        1
    x22       R7        1
    x22       R9        1
    x22       R11       1
    x22       R13       1
    x22       R15       1
    x22       R17       1
    x22       R18       1
    x22       R20       1
    x22       R22       1
    x22       R34       1
    x22       R40       1
    x22       R43       1
    x22       R45       1
    x22       R47       1
    x23       OBJ       1
    x23       R5        1
    x23       R8        1
    x23       R9        1
    x23       R10       1
    x23       R14       1
    x23       R15       1
    x23       R16       1
    x23       R18       1
    x23       R19       1
    x23       R23       1
    x23       R35       1
    x23       R41       1
    x23       R44       1
    x23       R45       1
    x23       R46       1
    x24       OBJ       1
    x24       R1        1
    x24       R2        1
    x24       R3        1
    x24       R6        1
    x24       R12       1
    x24       R24       1
    x24       R28       1
    x24       R29       1
    x24       R31       1
    x24       R32       1
    x24       R33       1
    x24       R37       1
    x24       R38       1
    x24       R39       1
    x24       R42       1
    x25       OBJ       1
    x25       R0        1
    x25       R2        1
    x25       R4        1
    x25       R7        1
    x25       R13       1
    x25       R25       1
    x25       R27       1
    x25       R29       1
    x25       R30       1
    x25       R32       1
    x25       R34       1
    x25       R36       1
    x25       R38       1
    x25       R40       1
    x25       R43       1
    x26       OBJ       1
    x26       R0        1
    x26       R1        1
    x26       R5        1
    x26       R8        1
    x26       R14       1
    x26       R26       1
    x26       R27       1
    x26       R28       1
    x26       R30       1
    x26       R31       1
    x26       R35       1
    x26       R36       1
    x26       R37       1
    x26       R41       1
    x26       R44       1
    x27       OBJ       1
    x27       R0        1
    x27       R4        1
    x27       R5        1
    x27       R9        1
    x27       R15       1
    x27       R25       1
    x27       R26       1
    x27       R27       1
    x27       R30       1
    x27       R34       1
    x27       R35       1
    x27       R36       1
    x27       R40       1
    x27       R41       1
    x27       R45       1
    x28       OBJ       1
    x28       R1        1
    x28       R3        1
    x28       R5        1
    x28       R10       1
    x28       R16       1
    x28       R24       1
    x28       R26       1
    x28       R28       1
    x28       R31       1
    x28       R33       1
    x28       R35       1
    x28       R37       1
    x28       R39       1
    x28       R41       1
    x28       R46       1
    x29       OBJ       1
    x29       R2        1
    x29       R3        1
    x29       R4        1
    x29       R11       1
    x29       R17       1
    x29       R24       1
    x29       R25       1
    x29       R29       1
    x29       R32       1
    x29       R33       1
    x29       R34       1
    x29       R38       1
    x29       R39       1
    x29       R40       1
    x29       R47       1
    x30       OBJ       1
    x30       R0        1
    x30       R7        1
    x30       R8        1
    x30       R9        1
    x30       R18       1
    x30       R25       1
    x30       R26       1
    x30       R27       1
    x30       R30       1
    x30       R34       1
    x30       R35       1
    x30       R36       1
    x30       R43       1
    x30       R44       1
    x30       R45       1
    x31       OBJ       1
    x31       R1        1
    x31       R6        1
    x31       R8        1
    x31       R10       1
    x31       R19       1
    x31       R24       1
    x31       R26       1
    x31       R28       1
    x31       R31       1
    x31       R33       1
    x31       R35       1
    x31       R37       1
    x31       R42       1
    x31       R44       1
    x31       R46       1
    x32       OBJ       1
    x32       R2        1
    x32       R6        1
    x32       R7        1
    x32       R11       1
    x32       R20       1
    x32       R24       1
    x32       R25       1
    x32       R29       1
    x32       R32       1
    x32       R33       1
    x32       R34       1
    x32       R38       1
    x32       R42       1
    x32       R43       1
    x32       R47       1
    x33       OBJ       1
    x33       R3        1
    x33       R6        1
    x33       R10       1
    x33       R11       1
    x33       R21       1
    x33       R24       1
    x33       R28       1
    x33       R29       1
    x33       R31       1
    x33       R32       1
    x33       R33       1
    x33       R39       1
    x33       R42       1
    x33       R46       1
    x33       R47       1
    x34       OBJ       1
    x34       R4        1
    x34       R7        1
    x34       R9        1
    x34       R11       1
    x34       R22       1
    x34       R25       1
    x34       R27       1
    x34       R29       1
    x34       R30       1
    x34       R32       1
    x34       R34       1
    x34       R40       1
    x34       R43       1
    x34       R45       1
    x34       R47       1
    x35       OBJ       1
    x35       R5        1
    x35       R8        1
    x35       R9        1
    x35       R10       1
    x35       R23       1
    x35       R26       1
    x35       R27       1
    x35       R28       1
    x35       R30       1
    x35       R31       1
    x35       R35       1
    x35       R41       1
    x35       R44       1
    x35       R45       1
    x35       R46       1
    x36       OBJ       1
    x36       R0        1
    x36       R13       1
    x36       R14       1
    x36       R15       1
    x36       R18       1
    x36       R25       1
    x36       R26       1
    x36       R27       1
    x36       R30       1
    x36       R36       1
    x36       R40       1
    x36       R41       1
    x36       R43       1
    x36       R44       1
    x36       R45       1
    x37       OBJ       1
    x37       R1        1
    x37       R12       1
    x37       R14       1
    x37       R16       1
    x37       R19       1
    x37       R24       1
    x37       R26       1
    x37       R28       1
    x37       R31       1
    x37       R37       1
    x37       R39       1
    x37       R41       1
    x37       R42       1
    x37       R44       1
    x37       R46       1
    x38       OBJ       1
    x38       R2        1
    x38       R12       1
    x38       R13       1
    x38       R17       1
    x38       R20       1
    x38       R24       1
    x38       R25       1
    x38       R29       1
    x38       R32       1
    x38       R38       1
    x38       R39       1
    x38       R40       1
    x38       R42       1
    x38       R43       1
    x38       R47       1
    x39       OBJ       1
    x39       R3        1
    x39       R12       1
    x39       R16       1
    x39       R17       1
    x39       R21       1
    x39       R24       1
    x39       R28       1
    x39       R29       1
    x39       R33       1
    x39       R37       1
    x39       R38       1
    x39       R39       1
    x39       R42       1
    x39       R46       1
    x39       R47       1
    x40       OBJ       1
    x40       R4        1
    x40       R13       1
    x40       R15       1
    x40       R17       1
    x40       R22       1
    x40       R25       1
    x40       R27       1
    x40       R29       1
    x40       R34       1
    x40       R36       1
    x40       R38       1
    x40       R40       1
    x40       R43       1
    x40       R45       1
    x40       R47       1
    x41       OBJ       1
    x41       R5        1
    x41       R14       1
    x41       R15       1
    x41       R16       1
    x41       R23       1
    x41       R26       1
    x41       R27       1
    x41       R28       1
    x41       R35       1
    x41       R36       1
    x41       R37       1
    x41       R41       1
    x41       R44       1
    x41       R45       1
    x41       R46       1
    x42       OBJ       1
    x42       R6        1
    x42       R12       1
    x42       R19       1
    x42       R20       1
    x42       R21       1
    x42       R24       1
    x42       R31       1
    x42       R32       1
    x42       R33       1
    x42       R37       1
    x42       R38       1
    x42       R39       1
    x42       R42       1
    x42       R46       1
    x42       R47       1
    x43       OBJ       1
    x43       R7        1
    x43       R13       1
    x43       R18       1
    x43       R20       1
    x43       R22       1
    x43       R25       1
    x43       R30       1
    x43       R32       1
    x43       R34       1
    x43       R36       1
    x43       R38       1
    x43       R40       1
    x43       R43       1
    x43       R45       1
    x43       R47       1
    x44       OBJ       1
    x44       R8        1
    x44       R14       1
    x44       R18       1
    x44       R19       1
    x44       R23       1
    x44       R26       1
    x44       R30       1
    x44       R31       1
    x44       R35       1
    x44       R36       1
    x44       R37       1
    x44       R41       1
    x44       R44       1
    x44       R45       1
    x44       R46       1
    x45       OBJ       1
    x45       R9        1
    x45       R15       1
    x45       R18       1
    x45       R22       1
    x45       R23       1
    x45       R27       1
    x45       R30       1
    x45       R34       1
    x45       R35       1
    x45       R36       1
    x45       R40       1
    x45       R41       1
    x45       R43       1
    x45       R44       1
    x45       R45       1
    x46       OBJ       1
    x46       R10       1
    x46       R16       1
    x46       R19       1
    x46       R21       1
    x46       R23       1
    x46       R28       1
    x46       R31       1
    x46       R33       1
    x46       R35       1
    x46       R37       1
    x46       R39       1
    x46       R41       1
    x46       R42       1
    x46       R44       1
    x46       R46       1
    x47       OBJ       1
    x47       R11       1
    x47       R17       1
    x47       R20       1
    x47       R21       1
    x47       R22       1
    x47       R29       1
    x47       R32       1
    x47       R33       1
    x47       R34       1
    x47       R38       1
    x47       R39       1
    x47       R40       1
    x47       R42       1
    x47       R43       1
    x47       R47       1
RHS
    RHS1      R0        1
    RHS1      R1        1
    RHS1      R2        1
    RHS1      R3        1
    RHS1      R4        1
    RHS1      R5        1
    RHS1      R6        1
    RHS1      R7        1
    RHS1      R8        1
    RHS1      R9        1
    RHS1      R10       1
    RHS1      R11       1
    RHS1      R12       1
    RHS1      R13       1
    RHS1      R14       1
    RHS1      R15       1
    RHS1      R16       1
    RHS1      R17       1
    RHS1      R18       1
    RHS1      R19       1
    RHS1      R20       1
    RHS1      R21       1
    RHS1      R22       1
    RHS1      R23       1
    RHS1      R24       1
    RHS1      R25       1
    RHS1      R26       1
    RHS1      R27       1
    RHS1      R28       1
    RHS1      R29       1
    RHS1      R30       1
    RHS1      R31       1
    RHS1      R32       1
    RHS1      R33       1
    RHS1      R34       1
    RHS1      R35       1
    RHS1      R36       1
    RHS1      R37       1
    RHS1      R38       1
    RHS1      R39       1
    RHS1      R40       1
    RHS1      R41       1
    RHS1      R42       1
    RHS1      R43       1
    RHS1      R44       1
    RHS1      R45       1
    RHS1      R46       1
    RHS1      R47       1
BOUNDS
 UP BND1      x0        1
 UP BND1      x1        1
 UP BND1      x2        1
 UP BND1      x3        1
 UP BND1      x4        1
 UP BND1      x5        1
 UP BND1      x6        1
 UP BND1      x7        1
 UP BND1      x8        1
 UP BND1      x9        1
 UP BND1      x10       1
 UP BND1      x11       1
 UP BND1      x12       1
 UP BND1      x13       1
 UP BND1      x14       1
 UP BND1      x15       1
 UP BND1      x16       1
 UP BND1      x17       1
 UP BND1      x18       1
 UP BND1      x19       1
 UP BND1      x20       1
 UP BND1      x21       1
 UP BND1      x22       1
 UP BND1      x23       1
 UP BND1      x24       1
 UP BND1      x25       1
 UP BND1      x26       1
 UP BND1      x27       1
 UP BND1      x28       1
 UP BND1      x29       1
 UP BND1      x30       1
 UP BND1      x31       1
 UP BND1      x32       1
 UP BND1      x33       1
 UP BND1      x34       1
 UP BND1      x35       1
 UP BND1      x36       1
 UP BND1      x37       1
 UP BND1      x38       1
 UP BND1      x39       1
 UP BND1      x40       1
 UP BND1      x41       1
 UP BND1      x42       1
 UP BND1      x43       1
 UP BND1      x44       1
 UP BND1      x45       1
 UP BND1      x46       1
 UP BND1      x47       1
ENDATA
